25
51.47 8.95
86.57 24.78
53.93 33.7
42.63 47.15
64.71 21.82
95.76 43.73
95.31 41.1
94.86 38.47
94.41 35.84
92.19 34.89
91.88 36.26
91 37.36
89.73 37.97
88.33 37.97
87.06 37.36
86.18 36.26
85.87 34.89
86.18 33.52
87.06 32.42
88.33 31.81
89.73 31.81
91 32.42
91.88 33.52
19.81 3.25
21.69 37.09
